c
c IA02 projet demineur ameliorer
c
p cnf 54 67
-3 -4 0
-3 -5 0
-4 -5 0
-9 -10 0
-9 -11 0
-10 -11 0
-15 -16 0
-15 -17 0
-16 -17 0
-21 -22 0
-21 -23 0
-22 -23 0
-27 -28 0
-27 -29 0
-28 -29 0
-33 -34 0
-33 -35 0
-34 -35 0
-39 -40 0
-39 -41 0
-40 -41 0
-45 -46 0
-45 -47 0
-46 -47 0
-51 -52 0
-51 -53 0
-52 -53 0
-3 -6 0
-2 -5 0
-6 2 0
-5 3 0
-9 -12 0
-8 -11 0
-12 8 0
-11 9 0
-15 -18 0
-14 -17 0
-18 14 0
-17 15 0
-21 -24 0
-20 -23 0
-24 20 0
-23 21 0
-27 -30 0
-26 -29 0
-30 26 0
-29 27 0
-33 -36 0
-32 -35 0
-36 32 0
-35 33 0
-39 -42 0
-38 -41 0
-42 38 0
-41 39 0
-45 -48 0
-44 -47 0
-48 44 0
-47 45 0
-51 -54 0
-50 -53 0
-54 50 0
-53 51 0
3 0
4 0
3 0
2 0
